NAME: random-59-8409
TYPE: TSP
COMMENT: size=59 seed=8409
DIMENSION: 120
EDGE_WEIGHT_TYPE: EUC_2D
NODE_COORD_SECTION
+0 63 259
-0 63 259
+1 810 121
-1 931 26
+2 843 208
-2 32 36
+3 639 548
-3 180 989
+4 722 753
-4 632 694
+5 957 696
-5 37 85
+6 635 387
-6 360 496
+7 538 303
-7 535 211
+8 126 50
-8 7 177
+9 18 21
-9 360 205
+10 684 334
-10 565 326
+11 99 388
-11 35 186
+12 775 170
-12 494 578
+13 219 879
-13 625 610
+14 839 608
-14 455 4
+15 569 820
-15 914 562
+16 97 886
-16 607 858
+17 309 457
-17 12 419
+18 852 769
-18 47 391
+19 703 837
-19 84 649
+20 268 508
-20 210 426
+21 706 184
-21 15 183
+22 71 498
-22 772 282
+23 248 286
-23 978 383
+24 989 661
-24 334 925
+25 763 575
-25 734 799
+26 109 293
-26 84 154
+27 628 159
-27 730 555
+28 744 545
-28 377 122
+29 157 708
-29 89 396
+30 385 890
-30 771 771
+31 333 616
-31 975 771
+32 367 968
-32 952 784
+33 730 805
-33 835 569
+34 561 928
-34 200 339
+35 896 881
-35 470 798
+36 548 371
-36 536 461
+37 375 225
-37 954 675
+38 682 158
-38 138 930
+39 146 868
-39 276 343
+40 959 72
-40 886 207
+41 356 892
-41 838 678
+42 45 256
-42 793 937
+43 42 981
-43 937 726
+44 781 39
-44 312 607
+45 932 212
-45 354 853
+46 110 395
-46 906 944
+47 166 794
-47 482 574
+48 559 757
-48 940 517
+49 178 459
-49 693 870
+50 725 767
-50 462 789
+51 802 831
-51 526 222
+52 378 166
-52 874 686
+53 525 898
-53 835 300
+54 221 366
-54 910 105
+55 865 154
-55 243 828
+56 350 734
-56 208 834
+57 738 680
-57 841 892
+58 68 466
-58 253 308
+59 99 885
-59 799 952
PRECEDENCE_SECTION
+0 -0
+1 -1
+2 -2
+3 -3
+4 -4
+5 -5
+6 -6
+7 -7
+8 -8
+9 -9
+10 -10
+11 -11
+12 -12
+13 -13
+14 -14
+15 -15
+16 -16
+17 -17
+18 -18
+19 -19
+20 -20
+21 -21
+22 -22
+23 -23
+24 -24
+25 -25
+26 -26
+27 -27
+28 -28
+29 -29
+30 -30
+31 -31
+32 -32
+33 -33
+34 -34
+35 -35
+36 -36
+37 -37
+38 -38
+39 -39
+40 -40
+41 -41
+42 -42
+43 -43
+44 -44
+45 -45
+46 -46
+47 -47
+48 -48
+49 -49
+50 -50
+51 -51
+52 -52
+53 -53
+54 -54
+55 -55
+56 -56
+57 -57
+58 -58
+59 -59
EOF
